NAME : xqc2175
COMMENT : Bonn VLSI data set with 2175 points
COMMENT : Uni Bonn, Research Institute for Discrete Math
COMMENT : Contributed by Andre Rohe
TYPE : TSP
DIMENSION : 2175
EDGE_WEIGHT_TYPE : EUC_2D
NODE_COORD_SECTION
1 0 106
2 0 109
3 0 113
4 0 120
5 0 127
6 0 134
7 0 141
8 0 148
9 0 15
10 0 155
11 0 162
12 0 169
13 0 17
14 0 170
15 0 176
16 0 177
17 0 183
18 0 184
19 0 190
20 0 191
21 0 197
22 0 198
23 0 204
24 0 22
25 0 28
26 0 29
27 0 36
28 0 41
29 0 43
30 0 50
31 0 57
32 0 64
33 0 71
34 0 78
35 0 79
36 0 8
37 0 85
38 0 9
39 0 92
40 0 99
41 2 104
42 2 106
43 2 112
44 2 114
45 2 12
46 2 122
47 2 126
48 2 128
49 2 131
50 2 135
51 2 139
52 2 14
53 2 141
54 2 144
55 2 146
56 2 148
57 2 155
58 2 158
59 2 161
60 2 168
61 2 169
62 2 17
63 2 174
64 2 175
65 2 178
66 2 181
67 2 182
68 2 188
69 2 198
70 2 200
71 2 28
72 2 39
73 2 46
74 2 53
75 2 58
76 2 69
77 2 79
78 5 104
79 5 106
80 5 117
81 5 122
82 5 124
83 5 127
84 5 131
85 5 133
86 5 135
87 5 137
88 5 140
89 5 145
90 5 149
91 5 153
92 5 156
93 5 159
94 5 162
95 5 166
96 5 173
97 5 185
98 5 7
99 5 97
100 5 99
101 9 125
102 9 138
103 9 143
104 10 103
105 10 121
106 10 125
107 10 130
108 10 134
109 10 138
110 10 143
111 10 148
112 10 155
113 10 158
114 10 16
115 10 161
116 10 187
117 10 27
118 10 38
119 10 57
120 10 68
121 10 77
122 11 103
123 11 108
124 11 116
125 11 121
126 11 125
127 11 130
128 11 134
129 11 138
130 11 143
131 11 148
132 11 155
133 11 158
134 11 16
135 11 161
136 11 171
137 11 184
138 11 187
139 11 194
140 11 27
141 11 38
142 11 5
143 11 57
144 11 68
145 11 77
146 11 8
147 11 96
148 12 150
149 12 163
150 15 104
151 15 106
152 15 117
153 15 122
154 15 124
155 15 131
156 15 133
157 15 135
158 15 137
159 15 149
160 15 153
161 15 156
162 15 159
163 15 162
164 15 166
165 15 185
166 15 97
167 15 99
168 16 188
169 16 39
170 17 169
171 17 175
172 17 178
173 17 182
174 17 46
175 18 53
176 25 100
177 25 102
178 25 107
179 25 108
180 25 109
181 25 111
182 25 113
183 25 115
184 25 12
185 25 121
186 25 123
187 25 125
188 25 127
189 25 128
190 25 130
191 25 132
192 25 133
193 25 134
194 25 135
195 25 139
196 25 140
197 25 144
198 25 145
199 25 148
200 25 149
201 25 150
202 25 155
203 25 157
204 25 160
205 25 161
206 25 165
207 25 166
208 25 169
209 25 170
210 25 171
211 25 176
212 25 178
213 25 180
214 25 182
215 25 183
216 25 184
217 25 185
218 25 187
219 25 19
220 25 197
221 25 199
222 25 34
223 25 56
224 25 80
225 25 84
226 25 86
227 25 87
228 25 92
229 25 95
230 25 97
231 26 142
232 26 163
233 28 100
234 28 102
235 28 105
236 28 112
237 28 114
238 28 118
239 28 129
240 28 132
241 28 182
242 28 188
243 28 192
244 28 27
245 28 31
246 28 61
247 28 65
248 28 71
249 28 77
250 28 8
251 28 83
252 28 86
253 28 90
254 28 96
255 31 121
256 31 125
257 32 115
258 32 121
259 32 125
260 32 130
261 32 180
262 32 62
263 32 84
264 32 87
265 32 94
266 33 11
267 33 111
268 33 113
269 33 115
270 33 122
271 33 126
272 33 128
273 33 130
274 33 18
275 33 180
276 33 187
277 33 32
278 33 62
279 33 84
280 33 87
281 33 94
282 33 99
283 34 104
284 34 11
285 34 111
286 34 113
287 34 115
288 34 121
289 34 125
290 34 128
291 34 130
292 34 18
293 34 180
294 34 187
295 34 193
296 34 25
297 34 32
298 34 59
299 34 62
300 34 84
301 34 87
302 34 94
303 34 99
304 35 115
305 35 189
306 35 5
307 35 62
308 35 87
309 38 100
310 38 102
311 38 105
312 38 112
313 38 114
314 38 118
315 38 123
316 38 127
317 38 129
318 38 188
319 38 192
320 38 65
321 38 71
322 38 77
323 38 8
324 38 83
325 38 90
326 39 12
327 39 19
328 40 108
329 40 109
330 40 134
331 40 135
332 40 139
333 40 145
334 40 148
335 40 155
336 40 157
337 40 160
338 40 166
339 40 169
340 40 176
341 40 178
342 40 184
343 40 185
344 40 92
345 41 116
346 41 117
347 41 143
348 41 149
349 41 164
350 41 170
351 41 56
352 41 63
353 41 65
354 41 67
355 41 69
356 41 71
357 41 73
358 41 75
359 41 77
360 41 79
361 41 81
362 41 82
363 41 88
364 41 89
365 48 105
366 48 107
367 48 11
368 48 110
369 48 112
370 48 116
371 48 120
372 48 122
373 48 124
374 48 125
375 48 127
376 48 134
377 48 136
378 48 137
379 48 139
380 48 141
381 48 142
382 48 144
383 48 145
384 48 147
385 48 148
386 48 151
387 48 152
388 48 156
389 48 157
390 48 160
391 48 161
392 48 162
393 48 167
394 48 169
395 48 171
396 48 172
397 48 173
398 48 189
399 48 22
400 48 26
401 48 36
402 48 39
403 48 51
404 48 53
405 48 54
406 48 57
407 48 58
408 48 60
409 48 61
410 48 68
411 48 83
412 48 86
413 48 87
414 48 91
415 48 97
416 48 99
417 49 154
418 51 111
419 51 115
420 51 119
421 51 121
422 51 124
423 51 127
424 51 131
425 51 138
426 51 141
427 51 144
428 51 147
429 51 149
430 51 174
431 51 194
432 51 197
433 51 201
434 51 33
435 51 48
436 51 54
437 51 58
438 51 7
439 51 73
440 51 76
441 51 80
442 51 84
443 51 91
444 51 93
445 51 98
446 54 134
447 54 171
448 54 51
449 55 112
450 55 116
451 55 122
452 55 125
453 55 134
454 55 139
455 55 142
456 55 145
457 55 171
458 55 51
459 55 54
460 55 58
461 55 96
462 56 10
463 56 110
464 56 112
465 56 116
466 56 120
467 56 122
468 56 125
469 56 135
470 56 137
471 56 139
472 56 142
473 56 145
474 56 148
475 56 171
476 56 25
477 56 38
478 56 52
479 56 56
480 56 83
481 56 90
482 56 96
483 57 10
484 57 101
485 57 110
486 57 112
487 57 116
488 57 120
489 57 122
490 57 125
491 57 134
492 57 137
493 57 139
494 57 142
495 57 145
496 57 148
497 57 171
498 57 179
499 57 192
500 57 195
501 57 25
502 57 32
503 57 38
504 57 5
505 57 51
506 57 71
507 57 74
508 57 83
509 57 90
510 57 96
511 58 112
512 58 116
513 58 128
514 58 45
515 61 111
516 61 115
517 61 119
518 61 121
519 61 131
520 61 136
521 61 138
522 61 149
523 61 174
524 61 33
525 61 48
526 61 53
527 61 57
528 61 84
529 61 91
530 61 93
531 62 11
532 62 26
533 62 39
534 63 151
535 63 157
536 63 160
537 63 167
538 63 169
539 63 36
540 63 61
541 63 87
542 64 113
543 64 114
544 64 117
545 64 118
546 64 155
547 64 161
548 64 189
549 64 22
550 64 68
551 71 104
552 71 106
553 71 110
554 71 112
555 71 113
556 71 115
557 71 118
558 71 120
559 71 121
560 71 123
561 71 124
562 71 125
563 71 126
564 71 13
565 71 130
566 71 135
567 71 137
568 71 139
569 71 141
570 71 142
571 71 144
572 71 146
573 71 149
574 71 15
575 71 150
576 71 154
577 71 155
578 71 158
579 71 159
580 71 160
581 71 165
582 71 167
583 71 169
584 71 171
585 71 173
586 71 177
587 71 179
588 71 182
589 71 184
590 71 197
591 71 199
592 71 22
593 71 23
594 71 24
595 71 27
596 71 31
597 71 32
598 71 35
599 71 39
600 71 40
601 71 41
602 71 42
603 71 44
604 71 45
605 71 46
606 71 52
607 71 57
608 71 79
609 71 83
610 71 89
611 71 9
612 71 91
613 71 93
614 71 95
615 71 96
616 71 99
617 72 152
618 74 105
619 74 112
620 74 115
621 74 117
622 74 120
623 74 127
624 74 130
625 74 132
626 74 136
627 74 138
628 74 14
629 74 147
630 74 171
631 74 173
632 74 175
633 74 178
634 74 182
635 74 184
636 74 188
637 74 192
638 74 20
639 74 25
640 74 30
641 74 38
642 74 49
643 74 53
644 74 58
645 74 6
646 74 63
647 74 67
648 74 73
649 74 84
650 74 86
651 74 92
652 74 97
653 74 99
654 77 121
655 77 124
656 77 139
657 77 142
658 77 22
659 77 26
660 77 34
661 77 50
662 77 93
663 78 103
664 78 110
665 78 113
666 78 118
667 78 12
668 78 121
669 78 124
670 78 139
671 78 142
672 78 169
673 78 176
674 78 22
675 78 26
676 78 34
677 78 50
678 78 93
679 79 103
680 79 110
681 79 113
682 79 118
683 79 12
684 79 122
685 79 124
686 79 129
687 79 135
688 79 137
689 79 140
690 79 143
691 79 146
692 79 169
693 79 172
694 79 176
695 79 181
696 79 22
697 79 26
698 79 34
699 79 83
700 79 91
701 79 94
702 79 96
703 79 98
704 80 103
705 80 110
706 80 113
707 80 116
708 80 118
709 80 12
710 80 121
711 80 124
712 80 129
713 80 135
714 80 137
715 80 139
716 80 142
717 80 146
718 80 169
719 80 172
720 80 176
721 80 181
722 80 186
723 80 193
724 80 22
725 80 26
726 80 34
727 80 48
728 80 5
729 80 61
730 80 64
731 80 83
732 80 85
733 80 91
734 80 93
735 80 96
736 80 98
737 81 17
738 81 189
739 81 26
740 81 34
741 81 64
742 84 117
743 84 123
744 84 127
745 84 130
746 84 132
747 84 136
748 84 138
749 84 141
750 84 144
751 84 147
752 84 173
753 84 175
754 84 182
755 84 184
756 84 192
757 84 20
758 84 25
759 84 49
760 84 53
761 84 58
762 84 6
763 84 67
764 84 73
765 84 84
766 84 86
767 84 92
768 84 95
769 84 97
770 84 99
771 86 149
772 86 155
773 86 158
774 86 165
775 86 167
776 86 32
777 86 40
778 86 41
779 86 42
780 86 45
781 86 46
782 86 89
783 86 9
784 87 153
785 87 159
786 87 28
787 87 29
788 87 36
789 87 37
790 87 66
791 87 72
792 87 79
793 94 107
794 94 109
795 94 11
796 94 110
797 94 111
798 94 112
799 94 114
800 94 130
801 94 132
802 94 133
803 94 134
804 94 135
805 94 146
806 94 149
807 94 150
808 94 154
809 94 155
810 94 158
811 94 159
812 94 160
813 94 165
814 94 167
815 94 170
816 94 171
817 94 175
818 94 176
819 94 18
820 94 180
821 94 181
822 94 186
823 94 198
824 94 200
825 94 22
826 94 24
827 94 27
828 94 28
829 94 30
830 94 31
831 94 33
832 94 34
833 94 35
834 94 36
835 94 37
836 94 39
837 94 41
838 94 43
839 94 45
840 94 57
841 94 62
842 94 64
843 94 67
844 94 69
845 94 71
846 94 73
847 94 78
848 94 80
849 95 152
850 95 173
851 97 102
852 97 106
853 97 109
854 97 115
855 97 120
856 97 128
857 97 132
858 97 141
859 97 147
860 97 23
861 97 27
862 97 30
863 97 32
864 97 40
865 97 42
866 97 47
867 97 50
868 97 53
869 97 58
870 97 6
871 97 62
872 97 64
873 97 67
874 97 69
875 97 73
876 97 8
877 97 87
878 97 95
879 100 137
880 100 143
881 100 43
882 100 83
883 100 89
884 100 97
885 101 107
886 101 130
887 101 137
888 101 143
889 101 21
890 101 28
891 101 43
892 101 56
893 101 71
894 101 83
895 101 89
896 101 97
897 102 107
898 102 114
899 102 130
900 102 137
901 102 143
902 102 146
903 102 188
904 102 21
905 102 28
906 102 31
907 102 39
908 102 41
909 102 44
910 102 61
911 102 66
912 102 71
913 102 83
914 102 89
915 102 97
916 103 100
917 103 107
918 103 114
919 103 130
920 103 137
921 103 144
922 103 146
923 103 194
924 103 21
925 103 28
926 103 31
927 103 39
928 103 41
929 103 43
930 103 46
931 103 49
932 103 5
933 103 51
934 103 56
935 103 61
936 103 66
937 103 71
938 103 74
939 103 83
940 103 90
941 103 98
942 104 103
943 104 116
944 104 137
945 104 83
946 107 106
947 107 115
948 107 147
949 107 32
950 107 40
951 107 42
952 107 45
953 107 47
954 107 50
955 107 6
956 107 62
957 107 64
958 107 67
959 107 69
960 107 8
961 109 11
962 109 111
963 109 112
964 109 134
965 109 135
966 109 149
967 109 155
968 109 158
969 109 165
970 109 167
971 109 170
972 109 176
973 109 186
974 109 34
975 109 35
976 109 36
977 109 37
978 110 138
979 110 139
980 110 141
981 110 142
982 110 143
983 110 153
984 110 159
985 110 174
986 110 18
987 110 180
988 110 84
989 110 85
990 110 87
991 110 88
992 110 89
993 110 92
994 110 93
995 110 95
996 110 96
997 110 97
998 117 101
999 117 104
1000 117 105
1001 117 109
1002 117 110
1003 117 113
1004 117 114
1005 117 115
1006 117 120
1007 117 122
1008 117 145
1009 117 146
1010 117 156
1011 117 157
1012 117 159
1013 117 171
1014 117 172
1015 117 173
1016 117 174
1017 117 22
1018 117 24
1019 117 26
1020 117 27
1021 117 30
1022 117 31
1023 117 32
1024 117 33
1025 117 35
1026 117 37
1027 117 39
1028 117 40
1029 117 43
1030 117 50
1031 117 66
1032 117 68
1033 117 73
1034 117 75
1035 117 83
1036 117 87
1037 117 92
1038 117 94
1039 117 96
1040 117 99
1041 118 107
1042 118 160
1043 120 101
1044 120 11
1045 120 15
1046 120 19
1047 120 200
1048 120 23
1049 120 26
1050 120 28
1051 120 36
1052 120 39
1053 120 41
1054 120 46
1055 120 48
1056 120 56
1057 120 64
1058 120 66
1059 120 68
1060 120 7
1061 120 73
1062 120 75
1063 120 80
1064 120 84
1065 120 88
1066 120 99
1067 123 42
1068 123 52
1069 123 58
1070 123 81
1071 124 12
1072 124 15
1073 124 19
1074 124 190
1075 124 24
1076 124 37
1077 124 42
1078 124 81
1079 124 84
1080 124 88
1081 125 13
1082 125 17
1083 125 22
1084 125 24
1085 125 27
1086 125 35
1087 125 37
1088 125 40
1089 125 42
1090 125 65
1091 125 72
1092 125 82
1093 125 86
1094 125 98
1095 126 124
1096 126 190
1097 126 22
1098 126 24
1099 126 27
1100 126 35
1101 126 37
1102 126 40
1103 126 42
1104 126 47
1105 126 5
1106 126 65
1107 126 72
1108 126 79
1109 126 90
1110 126 98
1111 127 197
1112 127 42
1113 127 52
1114 127 8
1115 130 0
1116 130 101
1117 130 11
1118 130 14
1119 130 18
1120 130 200
1121 130 23
1122 130 28
1123 130 36
1124 130 41
1125 130 48
1126 130 66
1127 130 68
1128 130 73
1129 130 75
1130 130 80
1131 130 83
1132 130 87
1133 130 99
1134 131 0
1135 132 0
1136 132 104
1137 132 110
1138 132 113
1139 132 120
1140 132 122
1141 132 145
1142 132 171
1143 132 173
1144 132 30
1145 132 31
1146 132 32
1147 132 33
1148 132 50
1149 133 0
1150 133 108
1151 133 114
1152 133 144
1153 133 155
1154 133 161
1155 133 174
1156 133 44
1157 133 45
1158 133 56
1159 133 63
1160 134 0
1161 135 0
1162 136 0
1163 137 0
1164 138 0
1165 139 0
1166 140 0
1167 140 10
1168 140 102
1169 140 103
1170 140 107
1171 140 114
1172 140 119
1173 140 12
1174 140 121
1175 140 124
1176 140 127
1177 140 128
1178 140 131
1179 140 133
1180 140 136
1181 140 14
1182 140 140
1183 140 141
1184 140 143
1185 140 144
1186 140 145
1187 140 155
1188 140 157
1189 140 159
1190 140 16
1191 140 161
1192 140 163
1193 140 193
1194 140 195
1195 140 23
1196 140 26
1197 140 33
1198 140 40
1199 140 76
1200 140 78
1201 140 91
1202 140 93
1203 140 96
1204 140 98
1205 141 0
1206 142 0
1207 143 0
1208 143 11
1209 143 120
1210 143 124
1211 143 132
1212 143 136
1213 143 138
1214 143 148
1215 143 150
1216 143 155
1217 143 157
1218 143 172
1219 143 177
1220 143 183
1221 143 187
1222 143 198
1223 143 49
1224 143 53
1225 143 58
1226 143 64
1227 143 67
1228 143 7
1229 143 71
1230 143 81
1231 143 84
1232 143 86
1233 143 89
1234 143 91
1235 143 93
1236 143 95
1237 143 98
1238 144 0
1239 145 0
1240 146 0
1241 146 12
1242 146 159
1243 146 169
1244 146 99
1245 147 0
1246 147 118
1247 147 12
1248 147 130
1249 147 159
1250 147 180
1251 147 183
1252 147 187
1253 147 46
1254 147 49
1255 147 53
1256 147 96
1257 148 0
1258 148 10
1259 148 118
1260 148 123
1261 148 13
1262 148 130
1263 148 135
1264 148 15
1265 148 154
1266 148 160
1267 148 162
1268 148 181
1269 148 185
1270 148 25
1271 148 32
1272 148 39
1273 148 47
1274 148 51
1275 148 90
1276 148 96
1277 149 0
1278 149 10
1279 149 118
1280 149 12
1281 149 123
1282 149 130
1283 149 135
1284 149 147
1285 149 15
1286 149 154
1287 149 159
1288 149 162
1289 149 189
1290 149 197
1291 149 25
1292 149 32
1293 149 39
1294 149 5
1295 149 65
1296 149 72
1297 149 80
1298 149 83
1299 149 88
1300 149 90
1301 149 96
1302 150 0
1303 150 55
1304 150 68
1305 150 99
1306 153 11
1307 153 124
1308 153 136
1309 153 138
1310 153 14
1311 153 148
1312 153 150
1313 153 155
1314 153 157
1315 153 161
1316 153 172
1317 153 177
1318 153 182
1319 153 186
1320 153 198
1321 153 48
1322 153 52
1323 153 58
1324 153 64
1325 153 71
1326 153 81
1327 153 84
1328 153 86
1329 153 89
1330 153 91
1331 153 93
1332 153 95
1333 154 16
1334 154 163
1335 154 26
1336 154 33
1337 154 40
1338 155 107
1339 155 127
1340 155 128
1341 155 140
1342 155 144
1343 155 145
1344 155 23
1345 156 114
1346 163 100
1347 163 101
1348 163 103
1349 163 106
1350 163 108
1351 163 11
1352 163 111
1353 163 112
1354 163 116
1355 163 117
1356 163 120
1357 163 121
1358 163 122
1359 163 127
1360 163 129
1361 163 13
1362 163 137
1363 163 138
1364 163 142
1365 163 143
1366 163 146
1367 163 147
1368 163 148
1369 163 15
1370 163 153
1371 163 155
1372 163 162
1373 163 164
1374 163 166
1375 163 168
1376 163 170
1377 163 172
1378 163 174
1379 163 176
1380 163 178
1381 163 18
1382 163 180
1383 163 187
1384 163 20
1385 163 23
1386 163 27
1387 163 52
1388 163 54
1389 163 60
1390 163 67
1391 163 69
1392 163 81
1393 163 86
1394 163 88
1395 163 91
1396 163 93
1397 163 96
1398 163 98
1399 164 114
1400 164 140
1401 166 100
1402 166 106
1403 166 108
1404 166 12
1405 166 133
1406 166 16
1407 166 160
1408 166 164
1409 166 167
1410 166 172
1411 166 175
1412 166 179
1413 166 19
1414 166 192
1415 166 195
1416 166 199
1417 166 23
1418 166 46
1419 166 50
1420 166 52
1421 166 54
1422 166 57
1423 166 64
1424 166 67
1425 166 69
1426 166 73
1427 166 77
1428 166 79
1429 166 8
1430 166 82
1431 166 86
1432 166 88
1433 166 91
1434 166 93
1435 166 96
1436 169 101
1437 170 10
1438 170 101
1439 170 162
1440 170 165
1441 170 17
1442 170 170
1443 170 173
1444 170 80
1445 170 98
1446 171 10
1447 171 102
1448 171 105
1449 171 15
1450 171 162
1451 171 165
1452 171 17
1453 171 170
1454 171 173
1455 171 22
1456 171 25
1457 171 51
1458 171 66
1459 171 85
1460 171 90
1461 171 95
1462 171 98
1463 172 10
1464 172 101
1465 172 105
1466 172 131
1467 172 15
1468 172 162
1469 172 165
1470 172 17
1471 172 170
1472 172 173
1473 172 190
1474 172 193
1475 172 22
1476 172 25
1477 172 44
1478 172 51
1479 172 56
1480 172 62
1481 172 66
1482 172 71
1483 172 78
1484 172 80
1485 172 85
1486 172 90
1487 172 95
1488 172 98
1489 173 157
1490 173 5
1491 173 74
1492 176 103
1493 176 106
1494 176 108
1495 176 16
1496 176 160
1497 176 23
1498 176 52
1499 176 54
1500 176 57
1501 176 67
1502 176 69
1503 176 77
1504 176 79
1505 176 8
1506 176 86
1507 176 88
1508 176 91
1509 176 93
1510 176 96
1511 178 111
1512 178 117
1513 178 120
1514 178 127
1515 178 129
1516 178 137
1517 178 143
1518 178 146
1519 178 153
1520 178 155
1521 178 60
1522 179 115
1523 179 121
1524 179 141
1525 179 147
1526 179 187
1527 186 10
1528 186 100
1529 186 102
1530 186 104
1531 186 105
1532 186 109
1533 186 110
1534 186 114
1535 186 115
1536 186 120
1537 186 129
1538 186 13
1539 186 130
1540 186 134
1541 186 135
1542 186 138
1543 186 139
1544 186 140
1545 186 145
1546 186 147
1547 186 15
1548 186 150
1549 186 151
1550 186 155
1551 186 156
1552 186 159
1553 186 160
1554 186 161
1555 186 166
1556 186 168
1557 186 179
1558 186 185
1559 186 187
1560 186 189
1561 186 198
1562 186 200
1563 186 48
1564 186 50
1565 186 53
1566 186 55
1567 186 6
1568 186 63
1569 186 85
1570 186 88
1571 186 89
1572 186 90
1573 186 93
1574 186 95
1575 186 98
1576 187 107
1577 187 132
1578 187 153
1579 189 11
1580 189 171
1581 189 174
1582 189 176
1583 189 193
1584 189 21
1585 189 29
1586 189 37
1587 189 39
1588 189 42
1589 189 44
1590 189 48
1591 189 50
1592 189 54
1593 189 59
1594 189 98
1595 192 100
1596 192 17
1597 192 23
1598 192 31
1599 193 100
1600 193 17
1601 193 23
1602 193 31
1603 193 52
1604 194 10
1605 194 101
1606 194 122
1607 194 17
1608 194 23
1609 194 31
1610 194 47
1611 194 52
1612 194 62
1613 194 97
1614 195 10
1615 195 100
1616 195 17
1617 195 170
1618 195 173
1619 195 183
1620 195 191
1621 195 194
1622 195 24
1623 195 32
1624 195 38
1625 195 41
1626 195 47
1627 195 52
1628 195 57
1629 195 62
1630 195 75
1631 195 97
1632 196 17
1633 196 34
1634 199 102
1635 199 11
1636 199 171
1637 199 174
1638 199 176
1639 199 37
1640 199 39
1641 199 42
1642 199 44
1643 199 48
1644 199 50
1645 199 98
1646 201 104
1647 201 110
1648 201 120
1649 201 129
1650 201 13
1651 201 135
1652 201 138
1653 201 145
1654 201 147
1655 201 15
1656 201 150
1657 201 156
1658 201 159
1659 201 166
1660 201 168
1661 201 179
1662 201 6
1663 201 89
1664 201 90
1665 201 93
1666 201 95
1667 202 108
1668 202 114
1669 202 133
1670 202 139
1671 202 154
1672 202 160
1673 202 18
1674 202 19
1675 202 21
1676 202 22
1677 202 23
1678 202 26
1679 202 27
1680 202 29
1681 202 30
1682 202 31
1683 202 85
1684 209 101
1685 209 103
1686 209 105
1687 209 107
1688 209 109
1689 209 11
1690 209 111
1691 209 120
1692 209 123
1693 209 124
1694 209 126
1695 209 128
1696 209 130
1697 209 136
1698 209 156
1699 209 160
1700 209 163
1701 209 165
1702 209 167
1703 209 169
1704 209 171
1705 209 173
1706 209 176
1707 209 178
1708 209 180
1709 209 182
1710 209 184
1711 209 186
1712 209 188
1713 209 190
1714 209 197
1715 209 26
1716 209 39
1717 209 49
1718 209 51
1719 209 54
1720 209 55
1721 209 6
1722 209 62
1723 209 64
1724 209 67
1725 209 71
1726 209 73
1727 209 84
1728 209 86
1729 209 88
1730 209 89
1731 209 90
1732 209 93
1733 209 96
1734 209 97
1735 209 98
1736 212 102
1737 212 106
1738 212 110
1739 212 115
1740 212 119
1741 212 121
1742 212 128
1743 212 137
1744 212 141
1745 212 147
1746 212 153
1747 212 159
1748 212 161
1749 212 164
1750 212 168
1751 212 172
1752 212 177
1753 212 181
1754 212 185
1755 212 189
1756 212 22
1757 212 39
1758 212 44
1759 212 59
1760 212 62
1761 212 64
1762 212 71
1763 212 73
1764 212 76
1765 212 79
1766 212 81
1767 212 85
1768 212 93
1769 212 95
1770 216 100
1771 216 126
1772 216 138
1773 216 162
1774 216 175
1775 216 83
1776 217 10
1777 217 100
1778 217 120
1779 217 126
1780 217 129
1781 217 136
1782 217 138
1783 217 160
1784 217 162
1785 217 175
1786 217 25
1787 217 38
1788 217 61
1789 217 70
1790 217 83
1791 217 92
1792 218 10
1793 218 100
1794 218 113
1795 218 120
1796 218 126
1797 218 129
1798 218 136
1799 218 138
1800 218 160
1801 218 162
1802 218 175
1803 218 21
1804 218 25
1805 218 38
1806 218 45
1807 218 57
1808 218 61
1809 218 70
1810 218 75
1811 218 78
1812 218 83
1813 218 92
1814 219 116
1815 219 138
1816 219 41
1817 222 119
1818 222 121
1819 222 137
1820 222 141
1821 222 147
1822 222 153
1823 222 159
1824 222 161
1825 222 22
1826 222 39
1827 222 44
1828 222 62
1829 222 64
1830 222 71
1831 222 73
1832 222 76
1833 222 79
1834 222 81
1835 222 93
1836 222 95
1837 223 130
1838 224 123
1839 224 55
1840 224 6
1841 224 67
1842 224 89
1843 224 90
1844 224 97
1845 224 98
1846 225 139
1847 225 141
1848 225 143
1849 225 145
1850 225 147
1851 225 149
1852 225 151
1853 225 153
1854 225 155
1855 225 157
1856 225 158
1857 225 197
1858 232 101
1859 232 102
1860 232 103
1861 232 108
1862 232 110
1863 232 113
1864 232 114
1865 232 118
1866 232 119
1867 232 122
1868 232 123
1869 232 124
1870 232 129
1871 232 131
1872 232 134
1873 232 135
1874 232 139
1875 232 140
1876 232 143
1877 232 144
1878 232 145
1879 232 150
1880 232 152
1881 232 155
1882 232 161
1883 232 179
1884 232 181
1885 232 183
1886 232 185
1887 232 187
1888 232 189
1889 232 191
1890 232 193
1891 232 196
1892 232 21
1893 232 32
1894 232 34
1895 232 36
1896 232 42
1897 232 46
1898 232 48
1899 232 49
1900 232 50
1901 232 51
1902 232 53
1903 232 55
1904 232 56
1905 232 58
1906 232 61
1907 232 63
1908 232 66
1909 232 68
1910 232 71
1911 232 72
1912 232 76
1913 232 77
1914 232 80
1915 232 81
1916 232 82
1917 232 87
1918 232 89
1919 232 92
1920 232 93
1921 232 97
1922 232 98
1923 233 116
1924 233 137
1925 233 74
1926 233 95
1927 235 11
1928 235 13
1929 235 16
1930 235 18
1931 235 180
1932 235 184
1933 235 188
1934 235 192
1935 235 196
1936 235 198
1937 235 200
1938 235 33
1939 235 36
1940 235 48
1941 235 55
1942 235 57
1943 235 59
1944 235 62
1945 235 67
1946 235 7
1947 239 178
1948 239 34
1949 239 46
1950 239 53
1951 239 60
1952 239 65
1953 240 159
1954 240 178
1955 240 32
1956 240 34
1957 240 46
1958 240 53
1959 240 56
1960 240 58
1961 240 60
1962 240 65
1963 241 12
1964 241 15
1965 241 159
1966 241 178
1967 241 197
1968 241 27
1969 241 32
1970 241 34
1971 241 46
1972 241 5
1973 241 53
1974 241 56
1975 241 58
1976 241 60
1977 241 65
1978 242 8
1979 245 11
1980 245 13
1981 245 16
1982 245 18
1983 245 198
1984 245 200
1985 245 33
1986 245 57
1987 245 59
1988 247 101
1989 247 108
1990 247 110
1991 247 113
1992 247 119
1993 247 122
1994 247 129
1995 247 131
1996 247 134
1997 247 140
1998 247 143
1999 247 150
2000 247 152
2001 247 155
2002 247 21
2003 247 50
2004 247 51
2005 247 71
2006 247 77
2007 247 80
2008 247 87
2009 247 89
2010 247 92
2011 247 98
2012 248 102
2013 248 117
2014 248 123
2015 248 138
2016 248 144
2017 248 42
2018 248 75
2019 248 81
2020 248 96
2021 255 108
2022 255 109
2023 255 119
2024 255 120
2025 255 122
2026 255 134
2027 255 135
2028 255 136
2029 255 137
2030 255 161
2031 255 162
2032 255 166
2033 255 167
2034 255 170
2035 255 171
2036 255 172
2037 255 177
2038 255 179
2039 255 181
2040 255 184
2041 255 185
2042 255 198
2043 255 200
2044 255 25
2045 255 27
2046 255 33
2047 255 34
2048 255 35
2049 255 38
2050 255 39
2051 255 40
2052 255 42
2053 255 44
2054 255 45
2055 255 46
2056 255 47
2057 255 50
2058 255 54
2059 255 56
2060 255 58
2061 255 60
2062 255 62
2063 255 64
2064 255 67
2065 255 68
2066 255 72
2067 255 73
2068 255 76
2069 255 77
2070 255 78
2071 255 83
2072 255 85
2073 256 123
2074 256 164
2075 256 70
2076 258 11
2077 258 15
2078 258 182
2079 258 189
2080 258 19
2081 258 193
2082 258 30
2083 258 44
2084 258 53
2085 258 55
2086 258 57
2087 258 60
2088 258 62
2089 258 64
2090 258 7
2091 261 49
2092 262 12
2093 262 15
2094 262 153
2095 262 19
2096 262 42
2097 262 49
2098 262 58
2099 263 13
2100 263 17
2101 263 181
2102 263 42
2103 263 49
2104 263 54
2105 263 56
2106 263 58
2107 263 61
2108 264 153
2109 264 181
2110 264 187
2111 264 194
2112 264 21
2113 264 29
2114 264 42
2115 264 49
2116 264 5
2117 264 54
2118 264 56
2119 264 58
2120 264 61
2121 264 87
2122 265 190
2123 265 49
2124 265 8
2125 268 11
2126 268 14
2127 268 18
2128 268 182
2129 268 193
2130 268 30
2131 268 55
2132 268 57
2133 268 62
2134 268 64
2135 270 108
2136 270 134
2137 270 136
2138 270 161
2139 270 167
2140 270 170
2141 270 177
2142 270 179
2143 270 184
2144 270 185
2145 270 34
2146 270 35
2147 270 39
2148 270 40
2149 270 46
2150 270 47
2151 270 67
2152 270 73
2153 270 76
2154 270 83
2155 270 85
2156 271 107
2157 271 118
2158 271 124
2159 271 137
2160 271 165
2161 271 171
2162 271 51
2163 271 52
2164 271 71
2165 271 77
2166 279 103
2167 279 109
2168 279 130
2169 279 136
2170 279 163
2171 279 190
2172 279 28
2173 279 55
2174 279 82
2175 279 9
EOF
